70
    1     1     8
    2    17    20
    3     3     8
    4    30    29
    5    55    58
    6    34    36
    7    57    59
    8    20    14
    9     3     3
   10    35    30
   11    16    10
   12    64    67
   13    24    28
   14    69    68
   15    13    15
   16    74    67
   17    19    17
   18    44    38
   19    12    17
   20    18    16
   21    53    49
   22    73    68
   23    20    26
   24    52    47
   25    19    23
   26    17    12
   27     9     6
   28    16    10
   29    21    14
   30     1     1
   31    65    66
   32    45    50
   33    40    42
   34     8     1
   35    47    44
   36    43    43
   37    31    36
   38    54    57
   39    29    30
   40    66    65
   41    50    45
   42     2     8
   43    15    18
   44    49    50
   45    17    11
   46    61    59
   47    61    60
   48    13    16
   49    31    31
   50    21    28
   51    57    57
   52    44    38
   53    46    45
   54    46    40
   55    59    63
   56    29    24
   57    56    49
   58    41    37
   59    32    38
   60    32    34
   61    71    67
   62    43    49
   63    51    50
   64    26    29
   65    13    14
   66    54    52
   67    62    59
   68    16    21
   69    63    62
   70    34    38
71
